benchmarks_vrp/CMT12/min_c/CMT12_2.vrp
NAME: CMT12_2
TYPE: CVRP
COMMENT: 819.56 - Cluster Nr.2
DIMENSION: 10
CAPACITY: 200
EDGE_WEIGHT_TYPE: EUC_2D
NODE_COORD_TYPE: TWOD_COORDS
NODE_COORD_SECTION: 
10 62 80
2 65 82
7 65 85
5 67 85
4 55 85
8 60 85
1 40 50
3 58 75
6 60 80
9 55 80
DEPOT_SECTION: 
1
-1
DEMAND_SECTION: 
1 0
6 10
10 30
4 20
5 20
8 30
9 10
3 20
7 40
2 10
EOF
