benchmarks_vrp/CMT12/min_c/CMT12_2.tour
NAME: CMT12_2 solution
TYPE: TOUR
TOUR_SECTION:
1 3 6 10 2 5 7 8 4 9 -1
-1
EOF